decision_x1=[0,2];
decision_x2=[0,2];
decision_x3=[0,2];
decision_x4=[0,2];
decision_x5=[0,2];
decision_x6=[0,2];
decision_x7=[0,2];
decision_x8=[0,2];
decision_x9=[0,2];
decision_x10=[0,2];
decision_x11=[0,2];
decision_x12=[0,2];
decision_x13=[0,2];
decision_x14=[0,2];
decision_x15=[0,2];
decision_x16=[0,2];
decision_x17=[0,2];
decision_x18=[0,2];
decision_x19=[0,2];
decision_x20=[0,2];
random_y1=[0,2];
random_y2=[0,2];
random_y3=[0,2];
random_y4=[0,2];
constraint_x3_x1=[
0,0,8.7|
0,1,1.2|
0,2,7.7|
1,0,2.3|
1,1,6.7|
1,2,6.3|
2,0,9.2|
2,1,7.7|
2,2,2.1|
];
constraint_x4_x1=[
0,0,7.5|
0,1,1|
0,2,1.2|
1,0,9.8|
1,1,1.3|
1,2,3.2|
2,0,8.7|
2,1,5.6|
2,2,6.9|
];
constraint_x4_x3=[
0,0,3.6|
0,1,8.5|
0,2,0.61|
1,0,2.8|
1,1,9.8|
1,2,7.2|
2,0,6.7|
2,1,4.9|
2,2,6.2|
];
constraint_x5_x1=[
0,0,4|
0,1,9.5|
0,2,6.1|
1,0,8.3|
1,1,2.1|
1,2,1.5|
2,0,3.6|
2,1,9|
2,2,9.1|
];
constraint_x5_x2=[
0,0,9.8|
0,1,5|
0,2,8.7|
1,0,4.1|
1,1,6.1|
1,2,5.9|
2,0,9.1|
2,1,5.5|
2,2,4.9|
];
constraint_x5_x3=[
0,0,3.1|
0,1,0.13|
0,2,2.9|
1,0,2.7|
1,1,7.5|
1,2,8|
2,0,1.5|
2,1,2.4|
2,2,2.7|
];
constraint_x6_x1=[
0,0,1.4|
0,1,3.1|
0,2,7.8|
1,0,1.5|
1,1,1.4|
1,2,1.6|
2,0,8.1|
2,1,0.19|
2,2,4.9|
];
constraint_x6_x2=[
0,0,6.9|
0,1,3.8|
0,2,9.3|
1,0,5.3|
1,1,4.3|
1,2,5.7|
2,0,7.1|
2,1,5.9|
2,2,5.2|
];
constraint_x6_x4=[
0,0,3.8|
0,1,3.5|
0,2,1.1|
1,0,2.7|
1,1,1.4|
1,2,4.3|
2,0,0.25|
2,1,3|
2,2,3.9|
];
constraint_x7_x3=[
0,0,5.8|
0,1,5.2|
0,2,0.15|
1,0,7.1|
1,1,5.6|
1,2,6.6|
2,0,1.1|
2,1,5.4|
2,2,1.4|
];
constraint_x7_x4=[
0,0,1.5|
0,1,9.4|
0,2,8.5|
1,0,9.7|
1,1,6.5|
1,2,8.1|
2,0,1.3|
2,1,1|
2,2,8.8|
];
constraint_x8_x1=[
0,0,1.1|
0,1,1.1|
0,2,6.2|
1,0,2.9|
1,1,0.79|
1,2,6.2|
2,0,4.2|
2,1,0.28|
2,2,8|
];
constraint_x8_x2=[
0,0,4.6|
0,1,2.5|
0,2,6|
1,0,3.5|
1,1,1.8|
1,2,9.7|
2,0,9|
2,1,7.9|
2,2,5.5|
];
constraint_x8_x3=[
0,0,0.28|
0,1,6.2|
0,2,3.7|
1,0,8.4|
1,1,1.1|
1,2,5.6|
2,0,1.8|
2,1,2.2|
2,2,3.7|
];
constraint_x8_x5=[
0,0,5.6|
0,1,4|
0,2,7.5|
1,0,5.3|
1,1,2.3|
1,2,5.1|
2,0,0.13|
2,1,4|
2,2,10|
];
constraint_x8_x6=[
0,0,9.7|
0,1,3.7|
0,2,5.4|
1,0,2.7|
1,1,5.1|
1,2,6|
2,0,4.6|
2,1,0.19|
2,2,5.5|
];
constraint_x8_x7=[
0,0,8.1|
0,1,5.9|
0,2,8.2|
1,0,9.9|
1,1,9.8|
1,2,8.6|
2,0,7.2|
2,1,7.2|
2,2,5.5|
];
constraint_x9_x1=[
0,0,2.2|
0,1,2.8|
0,2,3.7|
1,0,2.8|
1,1,9.8|
1,2,6.4|
2,0,5.7|
2,1,5.1|
2,2,4.6|
];
constraint_x9_x2=[
0,0,2.4|
0,1,3|
0,2,4.9|
1,0,4.1|
1,1,0.66|
1,2,9.5|
2,0,6.4|
2,1,9.6|
2,2,5.7|
];
constraint_x9_x6=[
0,0,5.1|
0,1,7.3|
0,2,0.026|
1,0,8.8|
1,1,4.4|
1,2,0.76|
2,0,5.1|
2,1,8.2|
2,2,9.6|
];
constraint_x9_x7=[
0,0,5.5|
0,1,5.6|
0,2,9.7|
1,0,6.6|
1,1,4.9|
1,2,2|
2,0,4.7|
2,1,6.9|
2,2,8.3|
];
constraint_x10_x1=[
0,0,7.2|
0,1,1.9|
0,2,3.8|
1,0,0.96|
1,1,8.5|
1,2,8.2|
2,0,4.6|
2,1,6.7|
2,2,6.2|
];
constraint_x10_x3=[
0,0,0.67|
0,1,9|
0,2,8.3|
1,0,8.4|
1,1,0.34|
1,2,0.032|
2,0,1.7|
2,1,1.9|
2,2,4.1|
];
constraint_x10_x4=[
0,0,3.4|
0,1,1.1|
0,2,5.7|
1,0,8.1|
1,1,7.6|
1,2,0.8|
2,0,5.2|
2,1,7.3|
2,2,8.9|
];
constraint_x10_x6=[
0,0,8.6|
0,1,8.5|
0,2,6.3|
1,0,2.8|
1,1,4.7|
1,2,9|
2,0,2.7|
2,1,10|
2,2,8|
];
constraint_x10_x7=[
0,0,4.2|
0,1,3.4|
0,2,3.8|
1,0,8.1|
1,1,9.1|
1,2,5.1|
2,0,3.3|
2,1,4.5|
2,2,3.2|
];
constraint_x10_x8=[
0,0,1.4|
0,1,5.9|
0,2,4.1|
1,0,5.3|
1,1,9.3|
1,2,4.3|
2,0,1.7|
2,1,6.6|
2,2,5.6|
];
constraint_x11_x4=[
0,0,7|
0,1,3.6|
0,2,8|
1,0,6.6|
1,1,1.3|
1,2,5.8|
2,0,1.2|
2,1,3.8|
2,2,3.4|
];
constraint_x11_x6=[
0,0,6.5|
0,1,0.18|
0,2,3.9|
1,0,2.8|
1,1,6.3|
1,2,7|
2,0,0.2|
2,1,7.7|
2,2,9.3|
];
constraint_x11_x8=[
0,0,7.1|
0,1,0.68|
0,2,8.7|
1,0,9|
1,1,4.8|
1,2,4.9|
2,0,4.3|
2,1,1.2|
2,2,2.3|
];
constraint_x11_x10=[
0,0,3|
0,1,9.1|
0,2,9.1|
1,0,2.8|
1,1,3.4|
1,2,2.8|
2,0,2.6|
2,1,1.3|
2,2,9.8|
];
constraint_x12_x2=[
0,0,2.7|
0,1,6|
0,2,2.7|
1,0,4.4|
1,1,4.7|
1,2,9.6|
2,0,0.71|
2,1,1.9|
2,2,6.1|
];
constraint_x12_x4=[
0,0,5.7|
0,1,9.3|
0,2,4.5|
1,0,0.089|
1,1,5.5|
1,2,7.9|
2,0,4.5|
2,1,6.3|
2,2,3.9|
];
constraint_x12_x5=[
0,0,2.1|
0,1,1.3|
0,2,7.5|
1,0,8.5|
1,1,4.4|
1,2,7.8|
2,0,6.9|
2,1,4.7|
2,2,7.4|
];
constraint_x12_x6=[
0,0,9.8|
0,1,4.1|
0,2,9|
1,0,7|
1,1,0.82|
1,2,3.9|
2,0,9|
2,1,5.2|
2,2,9.5|
];
constraint_x12_x7=[
0,0,4.5|
0,1,9.6|
0,2,2.8|
1,0,1|
1,1,1.4|
1,2,5.2|
2,0,7.4|
2,1,1.9|
2,2,7.5|
];
constraint_x12_x9=[
0,0,4.2|
0,1,2.4|
0,2,5.9|
1,0,1.8|
1,1,9.2|
1,2,4.7|
2,0,5.9|
2,1,3.8|
2,2,2.6|
];
constraint_x12_x10=[
0,0,0.23|
0,1,3.1|
0,2,3.4|
1,0,6.2|
1,1,9.4|
1,2,5.9|
2,0,9.6|
2,1,6.9|
2,2,4.1|
];
constraint_x12_x11=[
0,0,3.3|
0,1,4|
0,2,2.1|
1,0,7.1|
1,1,6.2|
1,2,5.9|
2,0,7.4|
2,1,8.5|
2,2,2.1|
];
constraint_x13_x8=[
0,0,4.2|
0,1,6|
0,2,8|
1,0,9.2|
1,1,5.8|
1,2,9.2|
2,0,2.4|
2,1,8.1|
2,2,2.9|
];
constraint_x13_x9=[
0,0,3.7|
0,1,0.89|
0,2,4.6|
1,0,4.3|
1,1,8.9|
1,2,8.1|
2,0,3.8|
2,1,0.42|
2,2,7.2|
];
constraint_x13_x10=[
0,0,6.6|
0,1,1.8|
0,2,6.4|
1,0,1.5|
1,1,6.2|
1,2,8.5|
2,0,7.9|
2,1,4.7|
2,2,9.1|
];
constraint_x13_x11=[
0,0,4.8|
0,1,6.4|
0,2,9|
1,0,8.1|
1,1,9.7|
1,2,2|
2,0,5.5|
2,1,6.2|
2,2,6.9|
];
constraint_x14_x1=[
0,0,8.7|
0,1,2.1|
0,2,8.6|
1,0,1.8|
1,1,0.38|
1,2,7.1|
2,0,0.52|
2,1,1.7|
2,2,7.8|
];
constraint_x14_x4=[
0,0,3.8|
0,1,1.9|
0,2,7.1|
1,0,6.5|
1,1,6.2|
1,2,0.13|
2,0,8.4|
2,1,7.5|
2,2,0.52|
];
constraint_x14_x5=[
0,0,2|
0,1,2.9|
0,2,8.9|
1,0,9.7|
1,1,0.66|
1,2,4|
2,0,4.7|
2,1,7.7|
2,2,5.1|
];
constraint_x14_x7=[
0,0,2.7|
0,1,3.8|
0,2,1.4|
1,0,4.1|
1,1,4.9|
1,2,0.81|
2,0,9|
2,1,7.5|
2,2,0.59|
];
constraint_x14_x8=[
0,0,2.3|
0,1,4.9|
0,2,5.8|
1,0,0.94|
1,1,4.3|
1,2,9.8|
2,0,8.2|
2,1,0.96|
2,2,7.4|
];
constraint_x14_x10=[
0,0,1.6|
0,1,5.4|
0,2,7.2|
1,0,6.4|
1,1,2.3|
1,2,0.81|
2,0,4|
2,1,3.3|
2,2,7.7|
];
constraint_x14_x11=[
0,0,8.4|
0,1,8.1|
0,2,3.4|
1,0,1.1|
1,1,9.8|
1,2,8.4|
2,0,8|
2,1,3.1|
2,2,5.9|
];
constraint_x14_x12=[
0,0,1.7|
0,1,3|
0,2,9.7|
1,0,3.4|
1,1,5|
1,2,4.2|
2,0,4.9|
2,1,7|
2,2,5.8|
];
constraint_x15_x4=[
0,0,7.8|
0,1,2.3|
0,2,9|
1,0,1.7|
1,1,0.45|
1,2,1.6|
2,0,2.2|
2,1,1.6|
2,2,9.5|
];
constraint_x15_x7=[
0,0,1.1|
0,1,7.1|
0,2,9.3|
1,0,8.8|
1,1,5|
1,2,8|
2,0,7.7|
2,1,8.8|
2,2,5.9|
];
constraint_x15_x8=[
0,0,0.016|
0,1,6.8|
0,2,0.68|
1,0,6.8|
1,1,1.4|
1,2,1.1|
2,0,2.8|
2,1,8.2|
2,2,6.4|
];
constraint_x15_x10=[
0,0,6.7|
0,1,2.7|
0,2,6.1|
1,0,7.4|
1,1,1.4|
1,2,6.4|
2,0,2.7|
2,1,1.6|
2,2,1.8|
];
constraint_x15_x12=[
0,0,0.73|
0,1,2.4|
0,2,3|
1,0,8.4|
1,1,7.9|
1,2,1.4|
2,0,4.2|
2,1,0.94|
2,2,9.2|
];
constraint_x15_x13=[
0,0,6.5|
0,1,9.6|
0,2,9.3|
1,0,8.5|
1,1,8.4|
1,2,8|
2,0,4.9|
2,1,8.2|
2,2,1.7|
];
constraint_x16_x1=[
0,0,8.2|
0,1,2.6|
0,2,8|
1,0,8|
1,1,6.7|
1,2,5.6|
2,0,5.8|
2,1,0.26|
2,2,6|
];
constraint_x16_x2=[
0,0,2.8|
0,1,0.38|
0,2,1.3|
1,0,6|
1,1,4.6|
1,2,6.8|
2,0,0.13|
2,1,0.76|
2,2,5.4|
];
constraint_x16_x5=[
0,0,7.5|
0,1,7.1|
0,2,2.9|
1,0,6.5|
1,1,9.5|
1,2,7.4|
2,0,5.4|
2,1,4.3|
2,2,6.5|
];
constraint_x16_x7=[
0,0,0.98|
0,1,4.7|
0,2,0.73|
1,0,5.9|
1,1,2.1|
1,2,6.2|
2,0,6.4|
2,1,8.3|
2,2,4.8|
];
constraint_x16_x9=[
0,0,0.56|
0,1,9.3|
0,2,0.84|
1,0,8.9|
1,1,2.9|
1,2,1.7|
2,0,9.1|
2,1,0.062|
2,2,0.78|
];
constraint_x16_x10=[
0,0,7.2|
0,1,6.1|
0,2,2.1|
1,0,3.8|
1,1,5.3|
1,2,9.1|
2,0,9.8|
2,1,1.9|
2,2,9.2|
];
constraint_x16_x14=[
0,0,5.2|
0,1,7.4|
0,2,7.4|
1,0,5.9|
1,1,9.4|
1,2,9.3|
2,0,4.8|
2,1,1.9|
2,2,1.3|
];
constraint_x17_x2=[
0,0,0.031|
0,1,6.2|
0,2,1.4|
1,0,9|
1,1,2.7|
1,2,9|
2,0,6.3|
2,1,5.1|
2,2,9.6|
];
constraint_x17_x4=[
0,0,5.6|
0,1,9.1|
0,2,1|
1,0,2.5|
1,1,1.2|
1,2,9.4|
2,0,4.5|
2,1,5.2|
2,2,6.2|
];
constraint_x17_x5=[
0,0,8.4|
0,1,2.3|
0,2,8.3|
1,0,1.5|
1,1,0.49|
1,2,8.4|
2,0,4.5|
2,1,9.6|
2,2,8.6|
];
constraint_x17_x6=[
0,0,8.7|
0,1,1.2|
0,2,3.3|
1,0,4.3|
1,1,7.8|
1,2,0.54|
2,0,7.9|
2,1,1.5|
2,2,9.6|
];
constraint_x17_x7=[
0,0,8.4|
0,1,7.9|
0,2,0.3|
1,0,8.3|
1,1,8.4|
1,2,6.8|
2,0,8.8|
2,1,5.2|
2,2,2.7|
];
constraint_x17_x10=[
0,0,2.9|
0,1,4.8|
0,2,3.2|
1,0,3.5|
1,1,5.8|
1,2,7.4|
2,0,8.8|
2,1,8.8|
2,2,7.1|
];
constraint_x17_x11=[
0,0,9.4|
0,1,4.5|
0,2,4.7|
1,0,4.2|
1,1,5|
1,2,5.1|
2,0,3.3|
2,1,7|
2,2,0.6|
];
constraint_x17_x13=[
0,0,6|
0,1,4.4|
0,2,4.3|
1,0,5.2|
1,1,0.028|
1,2,4.4|
2,0,3.3|
2,1,9.2|
2,2,6.1|
];
constraint_x17_x15=[
0,0,6.9|
0,1,5.7|
0,2,2.8|
1,0,6.4|
1,1,2.9|
1,2,1.3|
2,0,5.4|
2,1,0.39|
2,2,5.1|
];
constraint_x18_x3=[
0,0,2.8|
0,1,2.3|
0,2,5.6|
1,0,1.6|
1,1,2.4|
1,2,1.4|
2,0,1|
2,1,6.7|
2,2,8.9|
];
constraint_x18_x7=[
0,0,1.6|
0,1,0.17|
0,2,2|
1,0,1.1|
1,1,2.2|
1,2,7.2|
2,0,6.4|
2,1,6.3|
2,2,9.7|
];
constraint_x18_x8=[
0,0,1.6|
0,1,4.5|
0,2,9.7|
1,0,5.2|
1,1,4.2|
1,2,6.8|
2,0,1.6|
2,1,5.3|
2,2,1.3|
];
constraint_x18_x17=[
0,0,0.87|
0,1,0.64|
0,2,2.1|
1,0,7.8|
1,1,7.1|
1,2,7.2|
2,0,4.4|
2,1,8.3|
2,2,8.6|
];
constraint_x19_x1=[
0,0,0.17|
0,1,4.7|
0,2,3.1|
1,0,3|
1,1,9.5|
1,2,5.3|
2,0,6.8|
2,1,9.1|
2,2,2.2|
];
constraint_x19_x2=[
0,0,6.6|
0,1,9.5|
0,2,0.38|
1,0,5.2|
1,1,6.7|
1,2,2.7|
2,0,7|
2,1,1.5|
2,2,2.8|
];
constraint_x19_x6=[
0,0,5.5|
0,1,7.6|
0,2,9.2|
1,0,2.5|
1,1,7.1|
1,2,7.1|
2,0,7.5|
2,1,2|
2,2,4|
];
constraint_x19_x10=[
0,0,7.6|
0,1,1.2|
0,2,5.6|
1,0,3.9|
1,1,4.5|
1,2,6.1|
2,0,9.2|
2,1,0.25|
2,2,3.3|
];
constraint_x19_x11=[
0,0,4.6|
0,1,9.7|
0,2,8.1|
1,0,4.2|
1,1,7.3|
1,2,8.5|
2,0,0.17|
2,1,8.1|
2,2,3|
];
constraint_x19_x14=[
0,0,5.6|
0,1,1.8|
0,2,2.9|
1,0,1.2|
1,1,2.2|
1,2,5.7|
2,0,9|
2,1,4.2|
2,2,9.1|
];
constraint_x19_x15=[
0,0,7.8|
0,1,5.5|
0,2,0.59|
1,0,4.2|
1,1,7.2|
1,2,4.5|
2,0,9.3|
2,1,4.4|
2,2,0.88|
];
constraint_x20_x2=[
0,0,10|
0,1,6.1|
0,2,7.8|
1,0,9.2|
1,1,9.5|
1,2,1.8|
2,0,4.6|
2,1,2.1|
2,2,9|
];
constraint_x20_x4=[
0,0,4.6|
0,1,2.7|
0,2,0.52|
1,0,0.09|
1,1,4.6|
1,2,6.6|
2,0,1.4|
2,1,4.6|
2,2,2.3|
];
constraint_x20_x5=[
0,0,5.3|
0,1,0.17|
0,2,5.3|
1,0,2.3|
1,1,4.3|
1,2,2.7|
2,0,3.2|
2,1,6.9|
2,2,1.7|
];
constraint_x20_x7=[
0,0,7.1|
0,1,8.8|
0,2,9.6|
1,0,9.7|
1,1,0.26|
1,2,9|
2,0,7|
2,1,2|
2,2,7.6|
];
constraint_x20_x8=[
0,0,7.5|
0,1,3.3|
0,2,2.1|
1,0,9.7|
1,1,0.089|
1,2,5.2|
2,0,8.9|
2,1,0.5|
2,2,3.8|
];
constraint_x20_x11=[
0,0,8.3|
0,1,0.98|
0,2,7.9|
1,0,0.0026|
1,1,8.6|
1,2,6.6|
2,0,7.8|
2,1,8.5|
2,2,5.9|
];
constraint_x20_x13=[
0,0,9.2|
0,1,5.5|
0,2,7.2|
1,0,6.8|
1,1,8.2|
1,2,7.1|
2,0,8.6|
2,1,8.3|
2,2,8.7|
];
constraint_x20_x14=[
0,0,2.6|
0,1,8.6|
0,2,5.7|
1,0,2.7|
1,1,4.7|
1,2,8|
2,0,6|
2,1,8.9|
2,2,3.2|
];
constraint_x20_x17=[
0,0,3.8|
0,1,1.9|
0,2,5.4|
1,0,1.4|
1,1,7.1|
1,2,3.8|
2,0,0.48|
2,1,4.4|
2,2,6.6|
];
constraint_x20_x18=[
0,0,8.4|
0,1,0.4|
0,2,9.7|
1,0,7.3|
1,1,5.7|
1,2,8.7|
2,0,1.5|
2,1,7.2|
2,2,6.3|
];
constraint_x20_x19=[
0,0,4.7|
0,1,5.9|
0,2,4.3|
1,0,7.9|
1,1,6.1|
1,2,1.9|
2,0,8.3|
2,1,6.9|
2,2,0.9|
];
constraint_x1_y1=[
0,0,0.94|
0,1,6.6|
0,2,7.3|
1,0,1.6|
1,1,8|
1,2,7.1|
2,0,6.1|
2,1,7.6|
2,2,7.2|
];
constraint_x2_y2=[
0,0,5.8|
0,1,9|
0,2,6|
1,0,10|
1,1,4.2|
1,2,8.8|
2,0,0.52|
2,1,5.4|
2,2,3.6|
];
constraint_x3_y3=[
0,0,1.6|
0,1,6.9|
0,2,9|
1,0,3.3|
1,1,7.3|
1,2,2.3|
2,0,1.5|
2,1,5.6|
2,2,0.99|
];
constraint_x4_y4=[
0,0,5.5|
0,1,2.1|
0,2,1.5|
1,0,7.8|
1,1,2.9|
1,2,3.5|
2,0,7|
2,1,6.7|
2,2,5.3|
];
initial_distribution_y1=[0.15,0.59,0.27];
initial_distribution_y2=[0.21,0.5,0.29];
initial_distribution_y3=[0.27,0.37,0.36];
initial_distribution_y4=[0.099,0.39,0.51];
transition_y1=[
0.62,0.35,0.029|
0.38,0.23,0.39|
0.24,0.68,0.086|
];
transition_y2=[
0.39,0.38,0.22|
0.16,0.57,0.26|
0.21,0.68,0.11|
];
transition_y3=[
0.5,0.39,0.11|
0.45,0.29,0.26|
0.1,0.73,0.17|
];
transition_y4=[
0.24,0.016,0.75|
0.067,0.83,0.1|
0.43,0.087,0.48|
];
